Cars = 1..200;
Options = 1..5;
Classes = 1..27;
sequenceMinCapacity = [0, 0, 0, 0, 0];
sequenceMaxCapacity = [1, 2, 1, 2, 1];
sequenceSize = [2, 3, 3, 5, 5];
numOrdered = [11, 2, 5, 8, 4, 10, 4, 2, 2, 4, 16, 36, 1, 3, 13, 2, 10, 1, 3, 6, 24, 8, 6, 2, 4, 4, 9];
classHasOption = [|false,  true,  true, false, false
                  |false, false,  true,  true,  true
                  |false, false,  true, false, false
                  | true,  true,  true, false, false
                  | true,  true, false, false,  true
                  | true, false, false,  true, false
                  |false,  true, false, false,  true
                  | true,  true,  true,  true, false
                  |false,  true,  true, false,  true
                  |false, false,  true,  true, false
                  |false,  true, false,  true, false
                  |false,  true, false, false, false
                  | true, false,  true, false,  true
                  | true, false, false,  true,  true
                  | true, false, false, false, false
                  |false,  true, false,  true,  true
                  | true,  true, false,  true, false
                  | true,  true,  true, false,  true
                  | true, false,  true,  true, false
                  |false, false, false, false,  true
                  | true,  true, false, false, false
                  |false, false, false,  true, false
                  |false,  true,  true,  true, false
                  | true, false, false, false,  true
                  |false, false,  true, false,  true
                  |false, false, false, false, false
                  | true, false,  true, false, false|];
optionOrdering = [1, 3, 5, 4, 2];
